/* Objective function */
min: 11y11_5 + 11y11_4 + 11y11_3 + 11y11_2 + 10y10_5 + 10y10_4 + 10y10_3 + 10y10_2 + 7yb7_5 + 7yb7_4;



y10_5+y10_4+y10_3+y10_2 <= 1;

yb7_5+yb7_4+yb7_3+yb7_2 <= 6;

y11_5 - y6_5 >= 0;
y11_4 - y7_4 >= 0;
y10_4 - y6_4 >= 0;
y11_3 - y8_3 >= 0;
y8_3 - y5_3 >= 0;
y10_3 - y7_4 + y11_4 >= 0;
y7_4 - y4_3 >= 0;
y11_2 - y9_2 >= 0;
y9_2 - y7_2 >= 0;
y5_3 - y3_2 + y11_3 >= 0;
y5_3 - y3_2 >= 0;
y10_2 - y8_2 >= 0;
y8_2 - y6_4 + y10_2 >= 0;
y6_4 - y4_2 + y10_2 >= 0;
yb7_5 - yb5_2 >= 0;
yb5_2 - yb3_2 >= 0;


y11_5 +y6_5 + 2y10_5 + yb7_5 - yb5_2 = 5;
y11_4 + y7_4 + y10_4 + y6_4 + yb7_4 - y4_2 - y4_3 - yb4_3 = 8;
y11_3 + y8_3 + y5_3 + y10_3 + y7_4 + y4_3 + yb7_4 + yb4_3 - y3_2 = 10;
y11_2 + y9_2 + y7_2 + y5_3 + y3_2 + y10_2 + y8_2 + y6_4 + 2y4_2 + yb7_5 + yb5_2 + yb3_2 = 8;

int y11_5, y6_5, y10_5, yb7_5, y11_4, y7_4, y10_4, y6_4, yb7_4, y11_3, y8_3, y5_3, y10_3, y4_3, yb7_4, yb4_3, y11_2, y9_2, y7_2, y5_3, y3_2, y10_2, y8_2, y4_2, yb5_2, yb3_2;